!   File created by the GAMESS Input Deck Generator Plugin for Avogadro
 $BASIS GBASIS=STO NGAUSS=3 $END
 $CONTRL SCFTYP=RHF RUNTYP=ENERGY $END

 $DATA 
Title
C1
C     6.0    -0.24435     1.19760    -0.12571
C     6.0    -1.13708    -0.03726    -0.00529
C     6.0    -0.19016    -1.04245     0.62291
C     6.0     1.04772    -0.73989    -0.16949
C     6.0     1.96845    -1.77822    -0.75268
C     6.0     1.10475     0.58219    -0.48915
H     1.0     1.74245     0.87364    -1.34670
H     1.0    -0.18125     1.70322     0.86222
H     1.0    -0.63362     1.91113    -0.88209
H     1.0    -1.37896    -0.39549    -1.03383
H     1.0    -2.08888     0.12861     0.54238
H     1.0    -0.53929    -2.09522     0.56580
H     1.0    -0.03296    -0.75495     1.68654
H     1.0     1.66910    -2.79220    -0.41506
H     1.0     3.01490    -1.58912    -0.43440
H     1.0     1.91870    -1.74123    -1.86106
B     5.0     2.48195     1.44035     0.81084
H     1.0     2.21824    -0.42477     1.43124
H     1.0     2.08194     2.30645     1.51042
H     1.0     3.50347     1.66697     0.25573
 $END
